\* KeralaTrip *\
Minimize
OBJ: 24284 x0 + 28042 x1 + 33404 x2 + 11574 x3 + 31148 x4 + 36221 x5
 + 33800 x6 + 26714 x7 + 22267 x8 + 10999 x9
Subject To
_C1: 4 x0 + 5 x1 + 6 x2 + 4 x3 + 6 x4 + 7 x5 + 5 x6 + 5 x7 + 3 x8 + 4 x9 = 2
Binaries
x0
x1
x2
x3
x4
x5
x6
x7
x8
x9
End
